NAME          
ROWS
 N  OBJ
 L  c1
 L  c2
 L  c3
COLUMNS
    MARKER    'MARKER'                 'INTORG'
    x[1]      c1        821
    x[1]      c2        134
    x[1]      c3        970
    x[1]      OBJ       -93
    x[2]      c1        88
    x[2]      c2        109
    x[2]      c3        152
    x[2]      OBJ       -539
    x[3]      c1        593
    x[3]      c2        253
    x[3]      c3        429
    x[3]      OBJ       -783
    x[4]      c1        397
    x[4]      c2        178
    x[4]      c3        689
    x[4]      OBJ       -2
    x[5]      c1        156
    x[5]      c2        842
    x[5]      c3        460
    x[5]      OBJ       -464
    x[6]      c1        86
    x[6]      c2        993
    x[6]      c3        25
    x[6]      OBJ       -984
    x[7]      c1        239
    x[7]      c2        168
    x[7]      c3        168
    x[7]      OBJ       -751
    x[8]      c1        491
    x[8]      c2        566
    x[8]      c3        151
    x[8]      OBJ       -312
    x[9]      c1        796
    x[9]      c2        771
    x[9]      c3        849
    x[9]      OBJ       -31
    x[10]     c1        204
    x[10]     c2        346
    x[10]     c3        954
    x[10]     OBJ       -708
    x[11]     c1        901
    x[11]     c2        253
    x[11]     c3        629
    x[11]     OBJ       -461
    x[12]     c1        875
    x[12]     c2        702
    x[12]     c3        454
    x[12]     OBJ       -274
    x[13]     c1        858
    x[13]     c2        783
    x[13]     c3        198
    x[13]     OBJ       -414
    x[14]     c1        700
    x[14]     c2        105
    x[14]     c3        781
    x[14]     OBJ       -223
    x[15]     c1        105
    x[15]     c2        834
    x[15]     c3        890
    x[15]     OBJ       -765
    x[16]     c1        129
    x[16]     c2        997
    x[16]     c3        996
    x[16]     OBJ       -4
    x[17]     c1        686
    x[17]     c2        530
    x[17]     c3        202
    x[17]     OBJ       -393
    x[18]     c1        790
    x[18]     c2        370
    x[18]     c3        728
    x[18]     OBJ       -897
    x[19]     c1        509
    x[19]     c2        77
    x[19]     c3        584
    x[19]     OBJ       -743
    x[20]     c1        649
    x[20]     c2        30
    x[20]     c3        691
    x[20]     OBJ       -647
    x[21]     c1        816
    x[21]     c2        947
    x[21]     c3        383
    x[21]     OBJ       -946
    x[22]     c1        790
    x[22]     c2        433
    x[22]     c3        133
    x[22]     OBJ       -991
    x[23]     c1        400
    x[23]     c2        854
    x[23]     c3        900
    x[23]     OBJ       -553
    x[24]     c1        783
    x[24]     c2        837
    x[24]     c3        339
    x[24]     OBJ       -444
    x[25]     c1        499
    x[25]     c2        931
    x[25]     c3        690
    x[25]     OBJ       -801
    x[26]     c1        704
    x[26]     c2        603
    x[26]     c3        893
    x[26]     OBJ       -287
    x[27]     c1        777
    x[27]     c2        568
    x[27]     c3        644
    x[27]     OBJ       -165
    x[28]     c1        614
    x[28]     c2        610
    x[28]     c3        700
    x[28]     OBJ       -323
    x[29]     c1        764
    x[29]     c2        32
    x[29]     c3        104
    x[29]     OBJ       -585
    x[30]     c1        938
    x[30]     c2        874
    x[30]     c3        470
    x[30]     OBJ       -336
    x[31]     c1        965
    x[31]     c2        589
    x[31]     c3        45
    x[31]     OBJ       -435
    x[32]     c1        135
    x[32]     c2        682
    x[32]     c3        727
    x[32]     OBJ       -267
    x[33]     c1        603
    x[33]     c2        429
    x[33]     c3        878
    x[33]     OBJ       -582
    x[34]     c1        994
    x[34]     c2        277
    x[34]     c3        664
    x[34]     OBJ       -769
    x[35]     c1        391
    x[35]     c2        126
    x[35]     c3        447
    x[35]     OBJ       -840
RHS
    rhs       c1        10123
    rhs       c2        8916
    rhs       c3        9508
RANGES
BOUNDS
 BV bounds    x[1]
 BV bounds    x[2]
 BV bounds    x[3]
 BV bounds    x[4]
 BV bounds    x[5]
 BV bounds    x[6]
 BV bounds    x[7]
 BV bounds    x[8]
 BV bounds    x[9]
 BV bounds    x[10]
 BV bounds    x[11]
 BV bounds    x[12]
 BV bounds    x[13]
 BV bounds    x[14]
 BV bounds    x[15]
 BV bounds    x[16]
 BV bounds    x[17]
 BV bounds    x[18]
 BV bounds    x[19]
 BV bounds    x[20]
 BV bounds    x[21]
 BV bounds    x[22]
 BV bounds    x[23]
 BV bounds    x[24]
 BV bounds    x[25]
 BV bounds    x[26]
 BV bounds    x[27]
 BV bounds    x[28]
 BV bounds    x[29]
 BV bounds    x[30]
 BV bounds    x[31]
 BV bounds    x[32]
 BV bounds    x[33]
 BV bounds    x[34]
 BV bounds    x[35]
ENDATA
